200
1000
492
489
488
484
484
483
482
481
480
478
477
476
474
474
473
472
469
469
468
468
466
462
460
458
458
455
453
451
450
449
449
448
446
445
442
442
440
439
437
435
435
435
435
432
432
430
428
425
423
421
421
420
417
416
411
408
406
406
406
404
403
403
403
402
402
399
399
398
397
394
393
392
391
391
390
389
385
384
382
376
368
367
367
366
365
362
361
360
358
356
354
352
351
348
348
348
345
343
340
336
334
334
334
333
328
328
327
326
325
321
320
317
315
315
315
314
313
311
308
308
308
305
302
302
301
300
295
295
293
293
293
292
292
291
286
284
284
281
281
273
273
272
271
267
267
267
266
265
265
264
263
262
261
258
258
255
253
242
241
240
240
239
238
236
235
234
233
231
228
224
224
223
221
219
217
214
212
210
205
202
201
199
197
197
197
194
189
187
187
186
185
184
183
179
178
175
173
172
171
168
